SDVRP instances/custom_instances/p03_21_split0.vrp
NAME:p03_21_split
BEST_KNOWN: 0
COMMENT: 0
DIMENSION: 427
CAPACITY: 200
EDGE_WEIGHT_FORMAT: FUNCTION
EDGE_WEIGHT_TYPE: EXACT_2D
NODE_COORD_SECTION
1 0.00000 0.00000
2 21 -7
3 48 -18
4 48 -18
5 48 -18
6 48 -18
7 48 -18
8 48 -18
9 48 -18
10 44 9
11 44 9
12 44 9
13 -25 -47
14 -25 -47
15 48 5
16 48 5
17 48 5
18 48 5
19 -6 -47
20 -6 -47
21 -6 -47
22 -20 -2
23 -30 -8
24 14 -34
25 14 -34
26 14 -34
27 14 -34
28 14 -34
29 14 -34
30 14 -34
31 14 -34
32 48 2
33 48 2
34 48 2
35 48 2
36 24 -15
37 24 -15
38 -14 15
39 -14 15
40 39 35
41 39 35
42 39 35
43 39 35
44 39 35
45 -9 -30
46 -9 -30
47 -9 -30
48 -49 16
49 -49 16
50 -49 16
51 -49 16
52 -49 16
53 -49 16
54 -11 48
55 -11 48
56 29 -44
57 29 -44
58 18 47
59 18 47
60 18 47
61 18 47
62 5 -41
63 5 -41
64 5 -41
65 5 -41
66 5 -41
67 5 -41
68 17 14
69 17 14
70 17 14
71 17 14
72 20 24
73 3 46
74 3 46
75 3 46
76 3 46
77 3 46
78 3 46
79 -47 -18
80 -47 -18
81 -47 -18
82 2 -45
83 2 -45
84 2 -45
85 -1 -26
86 -1 -26
87 26 46
88 26 46
89 26 46
90 26 46
91 38 -2
92 38 -2
93 38 -2
94 38 -2
95 38 -2
96 38 -2
97 38 -2
98 -33 40
99 -33 40
100 -33 40
101 -33 40
102 38 37
103 38 37
104 38 37
105 38 37
106 38 37
107 10 1
108 10 1
109 10 1
110 10 1
111 10 1
112 2 39
113 2 39
114 2 39
115 2 39
116 6 35
117 6 35
118 6 35
119 49 43
120 49 43
121 49 43
122 49 43
123 49 43
124 49 43
125 -7 -10
126 -7 -10
127 -36 -7
128 -36 -7
129 -36 -7
130 -5 40
131 -5 40
132 -16 -37
133 -16 -37
134 -16 -37
135 49 20
136 49 20
137 49 20
138 -45 -26
139 -45 -26
140 -45 -26
141 -45 -26
142 -45 -26
143 -34 18
144 -34 18
145 -44 20
146 -44 20
147 -42 2
148 -42 2
149 -42 2
150 -46 -25
151 -46 -25
152 -11 -1
153 -11 -1
154 -11 -1
155 -11 -1
156 -11 -1
157 35 -24
158 35 -24
159 35 -24
160 35 -24
161 35 -24
162 35 -24
163 -42 -26
164 -42 -26
165 -42 -26
166 -42 -26
167 -46 -21
168 -46 -21
169 -46 -21
170 -46 -21
171 -46 -21
172 1 -8
173 1 -8
174 1 -8
175 1 -8
176 1 -8
177 1 -8
178 -29 36
179 -29 36
180 -29 36
181 -29 36
182 -29 36
183 44 19
184 44 19
185 44 19
186 44 19
187 44 19
188 9 0
189 9 0
190 9 0
191 9 0
192 9 0
193 9 0
194 9 0
195 7 38
196 7 38
197 7 38
198 -8 -43
199 -8 -43
200 -8 -43
201 47 -3
202 47 -3
203 47 -3
204 47 -3
205 47 -3
206 47 -3
207 47 -3
208 19 28
209 19 28
210 19 28
211 19 28
212 19 28
213 19 28
214 19 28
215 -19 3
216 -19 3
217 -19 3
218 -19 3
219 -19 3
220 -50 -21
221 -50 -21
222 -50 -21
223 -50 -21
224 -50 -21
225 -50 -21
226 -3 -29
227 -3 -29
228 -3 -29
229 -3 -29
230 -3 -29
231 -3 -29
232 50 -8
233 50 -8
234 50 -8
235 50 -8
236 50 -8
237 50 -8
238 50 -8
239 12 -28
240 12 -28
241 12 -28
242 1 -41
243 1 -41
244 44 -8
245 44 -8
246 44 -8
247 34 -42
248 34 -42
249 34 -42
250 34 -42
251 34 -42
252 -48 -30
253 -48 -30
254 -48 -30
255 -48 -30
256 -48 -30
257 -48 -30
258 -16 -25
259 -16 -25
260 -16 -25
261 -16 -25
262 -16 -25
263 -16 -25
264 -16 -25
265 41 31
266 41 31
267 41 31
268 41 31
269 41 31
270 41 31
271 26 25
272 26 25
273 26 25
274 26 25
275 26 25
276 -7 8
277 -7 8
278 -7 8
279 -7 8
280 -7 8
281 -7 8
282 -46 -23
283 -46 -23
284 -46 -23
285 -46 -23
286 -46 -23
287 -46 -23
288 50 -7
289 50 -7
290 50 -7
291 50 -7
292 50 -7
293 50 -7
294 50 -7
295 45 -29
296 45 -29
297 45 -29
298 45 -29
299 45 -29
300 45 -29
301 45 -29
302 8 24
303 8 24
304 8 24
305 46 10
306 46 10
307 46 10
308 46 10
309 46 10
310 46 10
311 46 10
312 -24 -41
313 -24 -41
314 -24 -41
315 6 -44
316 6 -44
317 6 -44
318 6 -44
319 6 -44
320 6 -44
321 6 -44
322 2 43
323 2 43
324 2 43
325 41 10
326 41 10
327 41 10
328 41 10
329 41 10
330 -30 19
331 -30 19
332 -30 19
333 13 23
334 13 23
335 13 23
336 13 23
337 13 23
338 10 47
339 10 47
340 8 49
341 8 49
342 8 49
343 8 49
344 8 49
345 8 49
346 8 49
347 -39 32
348 -39 32
349 -39 32
350 -39 32
351 -39 32
352 -25 -6
353 -25 -6
354 -25 -6
355 -25 -6
356 23 -39
357 23 -39
358 -26 -1
359 -26 -1
360 -26 -1
361 -26 -1
362 -26 -1
363 -26 -1
364 -26 -1
365 13 -31
366 13 -31
367 13 -31
368 13 -31
369 13 -31
370 -11 18
371 -11 18
372 -11 18
373 -11 18
374 38 -30
375 38 -30
376 38 -30
377 38 -30
378 38 -30
379 38 -30
380 38 35
381 38 35
382 38 35
383 38 35
384 38 35
385 18 -29
386 18 -29
387 18 -29
388 -28 0
389 -28 0
390 13 -41
391 13 -41
392 13 -41
393 13 -41
394 13 -41
395 13 -41
396 46 -17
397 46 -17
398 46 -17
399 46 -17
400 46 -17
401 46 -17
402 13 24
403 13 24
404 -5 34
405 -5 34
406 -5 34
407 -5 34
408 -5 34
409 -5 34
410 -23 38
411 -23 38
412 -23 38
413 17 -7
414 17 -7
415 17 -7
416 18 38
417 18 38
418 18 38
419 18 38
420 18 38
421 20 50
422 20 50
423 20 50
424 43 -25
425 43 -25
426 43 -25
427 43 -25
DEMAND_SECTION
1 0
2 40
3 40
4 20
5 10
6 2
7 2
8 2
9 1
10 40
11 2
12 1
13 40
14 2
15 40
16 40
17 2
18 2
19 40
20 2
21 2
22 40
23 40
24 40
25 40
26 10
27 2
28 2
29 2
30 2
31 1
32 20
33 2
34 2
35 1
36 40
37 40
38 20
39 10
40 20
41 10
42 2
43 2
44 2
45 40
46 40
47 20
48 20
49 10
50 2
51 2
52 2
53 1
54 40
55 40
56 40
57 10
58 40
59 40
60 2
61 1
62 20
63 10
64 2
65 2
66 2
67 2
68 20
69 2
70 2
71 2
72 40
73 20
74 10
75 2
76 2
77 2
78 2
79 40
80 2
81 1
82 20
83 10
84 2
85 20
86 10
87 40
88 40
89 10
90 1
91 40
92 20
93 10
94 2
95 2
96 2
97 1
98 40
99 40
100 2
101 1
102 40
103 20
104 10
105 2
106 1
107 20
108 10
109 2
110 2
111 1
112 40
113 20
114 2
115 2
116 40
117 10
118 2
119 40
120 10
121 2
122 2
123 2
124 1
125 20
126 10
127 20
128 10
129 1
130 40
131 20
132 40
133 40
134 20
135 40
136 40
137 10
138 40
139 10
140 2
141 2
142 1
143 20
144 10
145 40
146 10
147 40
148 40
149 2
150 40
151 20
152 20
153 2
154 2
155 2
156 1
157 40
158 40
159 2
160 2
161 2
162 1
163 20
164 2
165 2
166 2
167 40
168 40
169 10
170 2
171 1
172 40
173 20
174 2
175 2
176 2
177 1
178 40
179 20
180 10
181 2
182 1
183 40
184 2
185 2
186 2
187 1
188 40
189 40
190 10
191 2
192 2
193 2
194 2
195 40
196 2
197 1
198 40
199 2
200 1
201 20
202 10
203 2
204 2
205 2
206 2
207 1
208 40
209 20
210 10
211 2
212 2
213 2
214 1
215 20
216 2
217 2
218 2
219 2
220 40
221 40
222 10
223 2
224 2
225 2
226 20
227 10
228 2
229 2
230 2
231 1
232 40
233 20
234 2
235 2
236 2
237 2
238 1
239 20
240 10
241 2
242 40
243 2
244 20
245 10
246 1
247 40
248 40
249 10
250 2
251 1
252 40
253 40
254 10
255 2
256 2
257 1
258 40
259 40
260 2
261 2
262 2
263 2
264 1
265 40
266 20
267 2
268 2
269 2
270 2
271 40
272 10
273 2
274 2
275 2
276 40
277 10
278 2
279 2
280 2
281 1
282 20
283 10
284 2
285 2
286 2
287 1
288 40
289 20
290 2
291 2
292 2
293 2
294 1
295 40
296 40
297 10
298 2
299 2
300 2
301 2
302 40
303 2
304 1
305 40
306 40
307 10
308 2
309 2
310 2
311 2
312 40
313 10
314 2
315 40
316 20
317 10
318 2
319 2
320 2
321 1
322 40
323 40
324 20
325 40
326 2
327 2
328 2
329 2
330 40
331 10
332 1
333 40
334 20
335 2
336 2
337 2
338 40
339 10
340 40
341 40
342 10
343 2
344 2
345 2
346 2
347 40
348 10
349 2
350 2
351 1
352 20
353 2
354 2
355 2
356 40
357 40
358 40
359 40
360 2
361 2
362 2
363 2
364 1
365 40
366 20
367 10
368 2
369 2
370 40
371 20
372 2
373 1
374 40
375 40
376 2
377 2
378 2
379 1
380 20
381 2
382 2
383 2
384 1
385 20
386 10
387 2
388 40
389 1
390 40
391 10
392 2
393 2
394 2
395 2
396 40
397 20
398 2
399 2
400 2
401 1
402 40
403 10
404 20
405 2
406 2
407 2
408 2
409 1
410 40
411 2
412 2
413 40
414 2
415 2
416 20
417 2
418 2
419 2
420 2
421 40
422 20
423 1
424 40
425 20
426 10
427 2
DEPOT_SECTION
1
-1
EOF