SDVRP instances/custom_instances/p03_21_split0.sol
426 -10 11 9 305 306 307 304 310 309 308 328 326 324 325 327 -15 16 17 14 33 34 32 31 201 95 91 92 90 93 96 94 -22 80 79 78 222 223 221 224 219 220 -27 25 23 28 24 30 29 26 365 366 368 367 364 240 -36 35 156 157 412 -38 37 350 348 347 346 349 143 142 331 329 330 214 218 216 215 217 -53 54 129 130 403 404 405 408 406 407 -55 56 246 248 247 250 249 375 374 376 378 161 158 160 159 -59 58 60 57 422 421 420 337 338 -65 63 66 61 62 64 315 316 317 319 314 320 318 82 83 81 242 241 -69 67 68 70 71 209 211 208 207 213 212 210 401 402 -85 84 225 229 228 227 226 230 45 46 44 125 124 -108 106 109 110 107 187 189 190 191 192 188 193 -114 113 112 111 72 76 73 74 77 75 345 343 340 339 342 341 344 -116 117 115 196 194 195 322 323 321 -128 126 127 146 148 147 49 51 50 48 47 52 145 144 -132 133 131 258 263 262 260 257 261 259 -141 140 150 149 281 282 284 285 283 286 169 167 170 166 168 -151 152 155 154 153 21 362 357 358 359 363 360 361 388 387 -164 165 162 163 256 251 255 253 254 252 138 137 139 351 353 352 354 -171 175 172 176 173 174 -177 180 181 179 178 97 99 98 100 411 410 409 -186 185 183 184 182 134 136 135 265 266 264 -199 198 197 20 19 18 12 13 313 311 312 -204 206 203 202 205 200 292 290 287 288 293 291 289 234 235 233 231 236 237 232 243 245 244 -238 239 391 393 389 394 392 390 355 356 385 386 384 -269 268 267 121 120 122 123 119 118 103 101 102 104 105 43 42 39 40 41 381 379 382 380 383 -272 274 273 271 270 87 88 86 89 415 416 419 417 418 -276 275 277 278 279 280 -333 336 334 332 335 301 303 302 370 371 372 369 -377 373 294 298 299 300 297 296 295 424 423 -413 414 1 395 396 400 397 399 398 4 6 2 3 7 5 8 426 425 0 





OBJ=
2951.464
BEST_KNOWN=
0.000